
Gurobi 9.1.1 (linux64) logging started Sat Oct  9 23:19:51 2021

Changed value of parameter LogFile to results/max2cut_numv416/max2cut_numv416_Anaheim_peel_decompose_unweighted_BQO_log.txt
   Prev:   Default: 
Gurobi Optimizer version 9.1.1 build v9.1.1rc0 (linux64)
Thread count: 20 physical cores, 40 logical processors, using up to 10 threads
Optimize a model with 395 rows, 790 columns and 790 nonzeros
Model fingerprint: 0xa353b9fd
Model has 1982 quadratic objective terms
Variable types: 0 continuous, 790 integer (790 binary)
Coefficient statistics:
  Matrix range     [1e+00, 1e+00]
  Objective range  [2e-17, 4e+00]
  QObjective range [1e-02, 7e+00]
  Bounds range     [1e+00, 1e+00]
  RHS range        [1e+00, 1e+00]
Found heuristic solution: objective -0.0000000
Presolve removed 395 rows and 396 columns
Presolve time: 0.01s
Presolved: 611 rows, 1005 columns, 1833 nonzeros
Found heuristic solution: objective 2.0000000
Variable types: 0 continuous, 1005 integer (1005 binary)
Found heuristic solution: objective 409.0000000
Presolved: 595 rows, 855 columns, 1668 nonzeros


Root relaxation: objective -6.115000e+02, 355 iterations, 0.01 seconds

    Nodes    |    Current Node    |     Objective Bounds      |     Work
 Expl Unexpl |  Obj  Depth IntInf | Incumbent    BestBd   Gap | It/Node Time

     0     0  611.50000    0  377  409.00000  611.50000  49.5%     -    0s
H    0     0                     484.0000000  611.50000  26.3%     -    0s
H    0     0                     488.0000000  611.50000  25.3%     -    0s
     0     0  551.00000    0  360  488.00000  551.00000  12.9%     -    0s
     0     0  551.00000    0  362  488.00000  551.00000  12.9%     -    0s
H    0     0                     506.0000000  551.00000  8.89%     -    0s
     0     0  545.25000    0  374  506.00000  545.25000  7.76%     -    0s
     0     0  545.25000    0  342  506.00000  545.25000  7.76%     -    0s
H    0     0                     526.0000000  545.25000  3.66%     -    0s
H    0     0                     530.0000000  545.25000  2.88%     -    0s
     0     2  545.25000    0  331  530.00000  545.25000  2.88%     -    0s
*  143   140              15     539.0000000  544.00000  0.93%  19.4    1s
H  154   139                     540.0000000  544.00000  0.74%  20.5    1s

Cutting planes:
  Gomory: 10
  MIR: 31
  Zero half: 68
  RLT: 2

Explored 637 nodes (16621 simplex iterations) in 1.48 seconds
Thread count was 10 (of 40 available processors)

Solution count 10: 540 539 530 ... 2

Optimal solution found (tolerance 0.00e+00)
Best objective 5.400000000000e+02, best bound 5.400000000000e+02, gap 0.0000%
